TYPE : Vertex Cover
DIMENSION: 36
EDGE_DATA_SECTION:
0 2
0 3
0 5
0 9
0 11
0 18
0 20
0 23
0 25
0 28
0 31
1 9
1 11
1 13
1 14
1 20
1 22
1 34
2 7
2 25
2 27
2 29
2 34
3 7
3 9
3 11
3 15
3 18
3 19
3 21
3 27
3 30
3 31
3 34
4 6
4 13
4 19
4 20
4 22
4 23
4 25
4 29
4 30
4 32
5 6
5 9
5 15
5 23
5 24
5 26
5 30
6 7
6 15
6 17
6 21
6 22
6 23
6 28
6 29
6 32
6 35
7 8
7 11
7 15
7 21
7 24
7 26
7 28
7 31
7 34
8 10
8 12
8 13
8 17
8 28
8 32
8 34
9 19
9 21
9 22
9 26
9 32
9 34
10 12
10 14
10 15
10 16
10 18
10 22
10 29
10 30
10 31
10 33
10 34
11 14
11 15
11 20
11 26
11 28
11 29
11 33
12 16
12 18
12 22
12 31
12 35
13 14
13 16
13 20
13 22
13 24
14 15
14 16
14 19
14 25
14 27
14 31
14 33
15 18
15 19
15 20
15 26
15 28
15 29
15 33
15 34
16 25
16 27
16 28
16 31
16 34
17 20
17 21
17 22
17 23
17 24
17 26
17 29
17 33
18 21
18 24
18 26
18 27
18 29
18 30
18 33
19 22
19 24
19 27
19 28
19 30
19 33
19 35
20 24
20 27
20 34
21 25
21 27
21 29
21 33
21 34
22 25
22 26
22 28
22 29
22 33
23 31
23 34
24 27
24 33
24 35
25 27
25 28
25 29
25 31
25 32
26 28
26 35
27 30
27 34
28 31
28 33
29 35
30 33
31 32
31 34
32 34
33 34
34 35
-1
VERTEX_DEGREE:
11.0 7.0 6.0 12.0 10.0 8.0 12.0 12.0 8.0 10.0 12.0 11.0 7.0 8.0 11.0 15.0 9.0 10.0 12.0 12.0 10.0 11.0 14.0 7.0 10.0 12.0 10.0 12.0 13.0 12.0 8.0 12.0 7.0 13.0 17.0 7.0
VERTEX_COVER:
0 6 7 9 10 11 12 13 14 15 17 18 19 20 21 22 23 24 25 26 27 28 29 30 31 32 34
EOF
